14 107
92 1
39 87
17 58
7 186
72 2
49 64
2 18
24 64
12 136
75 10
55 48
31 184
33 105
42 104
99 29
85 44
94 30
17 95
73 18
50 44
91 14
65 56
11 91
35 33
24 77
52 1
49 22
51 78
39 72
95 32
61 87
23 78
12 100
45 102
11 64
5 200
62 8
46 9
5 42
7 44
33 108
89 22
57 46
58 23
29 51
59 24
47 2
32 167
97 36
